log/Reading instance from file data/g06.dat
Number of nodes: 201
Number of edges: 999
initialize CPLEX ... done.
Calling CPLEX solve ...
Version identifier: 12.10.0.0 | 2019-11-26 | 843d4de
CPXPARAM_Threads                                 1
CPXPARAM_TimeLimit                               3600
CPXPARAM_WorkMem                                 8192
Tried aggregator 1 time.
MIP Presolve eliminated 403 rows and 202 columns.
MIP Presolve modified 2798 coefficients.
Reduced MIP has 2401 rows, 2198 columns, and 11388 nonzeros.
Reduced MIP has 1998 binaries, 200 generals, 0 SOSs, and 0 indicators.
Presolve time = 0.01 sec. (8.59 ticks)
Probing time = 0.00 sec. (2.98 ticks)
Tried aggregator 1 time.
Detecting symmetries...
Reduced MIP has 2401 rows, 2198 columns, and 11388 nonzeros.
Reduced MIP has 1998 binaries, 200 generals, 0 SOSs, and 0 indicators.
Presolve time = 0.01 sec. (7.48 ticks)
Probing time = 0.00 sec. (2.79 ticks)
Clique table members: 2598.
MIP emphasis: balance optimality and feasibility.
MIP search method: dynamic search.
Parallel mode: none, using 1 thread.
Root relaxation solution time = 0.01 sec. (11.62 ticks)

        Nodes                                         Cuts/
   Node  Left     Objective  IInf  Best Integer    Best Bound    ItCnt     Gap

      0     0     3032.6535   112                   3032.6535      613         
      0     0     4343.4691   112                   Cuts: 245     1057         
      0     0     5598.1608   112                   Cuts: 209     1248         
      0     0     6099.0294   112                   Cuts: 143     1371         
      0     0     6366.6927   112                    Cuts: 86     1451         
      0     0     6445.4084   112                    Cuts: 31     1501         
Detecting symmetries...
      0     0     6476.8970   112                    Cuts: 44     1516         
      0     0     6494.0396   112                    Cuts: 24     1532         
      0     0     6496.0396   112                     Cuts: 6     1542         
      0     0     6498.0594   112                    Cuts: 19     1555         
      0     0     6501.0792   112                     Cuts: 3     1565         
      0     0     6505.0594   112                    Cuts: 16     1572         
      0     0     6508.0000   112                     Cuts: 6     1576         
      0     0     6508.0000   112                     Cuts: 5     1583         
      0     0     6508.0000   112                 ZeroHalf: 3     1584         
*     0+    0                        31177.0000     6508.0000            79.13%
*     0+    0                        30625.0000     6508.0000            78.75%
      0     0  -1.00000e+75     0    30625.0000     6508.0000     1584   78.75%
Detecting symmetries...
      0     2     6508.0000    47    30625.0000     6508.0000     1584   78.75%
Elapsed time = 0.35 sec. (388.61 ticks, tree = 0.01 MB, solutions = 2)
    121   121     7441.1843    29    30625.0000     6508.2178     3453   78.75%
    270   256     9530.0579    16    30625.0000     6508.2178     5721   78.75%
    411   386     7126.5850    54    30625.0000     6518.0000     8354   78.72%

Performing restart 1

Repeating presolve.
Tried aggregator 1 time.
MIP Presolve modified 2137 coefficients.
Reduced MIP has 2401 rows, 2198 columns, and 10025 nonzeros.
Reduced MIP has 1998 binaries, 200 generals, 0 SOSs, and 0 indicators.
Presolve time = 0.02 sec. (12.38 ticks)
Tried aggregator 1 time.
MIP Presolve modified 261 coefficients.
Reduced MIP has 2400 rows, 2198 columns, and 9790 nonzeros.
Reduced MIP has 1998 binaries, 200 generals, 0 SOSs, and 0 indicators.
Presolve time = 0.01 sec. (8.45 ticks)
Represolve time = 0.04 sec. (33.96 ticks)
    503     0     6508.0000    23    30625.0000      Cuts: 23    11655   78.72%
    503     0     6508.0000    23    30625.0000      Cuts: 11    11660   78.72%
    503     0     6508.2673    23    30625.0000       Cuts: 9    11667   78.72%
    503     0     6527.1584    23    30625.0000      Cuts: 20    11703   78.69%
    503     0     6541.0792    23    30625.0000      Cuts: 28    11725   78.64%
    503     0     6548.1584    23    30625.0000      Cuts: 21    11758   78.62%
    503     0     6562.6678    23    30625.0000      Cuts: 26    11808   78.57%
    503     0     6563.0000    23    30625.0000      Cuts: 23    11834   78.57%
    503     0     6564.3333    23    30625.0000      Cuts: 75    11886   78.57%
    503     0     6567.3517    23    30625.0000      Cuts: 87    11921   78.56%
    503     0     6569.8611    23    30625.0000     Cuts: 105    11955   78.55%
    503     0     6571.1786    23    30625.0000      Cuts: 63    11981   78.54%
    503     0     6573.5000    23    30625.0000      Cuts: 40    12002   78.54%
    503     0     6575.0000    23    30625.0000      Cuts: 35    12030   78.53%
    503     0     6575.3529    23    30625.0000      Cuts: 23    12052   78.53%
    503     0     6575.3529    23    30625.0000      Cuts: 18    12058   78.53%
*   503+    0                        29633.0000     6575.3529            77.81%
    503     0  -1.00000e+75     0    29633.0000     6575.3529    12058   77.81%
    503     2     6575.3529    89    29633.0000     6576.3529    12058   77.81%
    510     9     6578.5842    58    29633.0000     6577.5714    12202   77.80%
    522    21     6582.6590    29    29633.0000     6577.5714    12428   77.80%
*   547    42      integral     0     7625.0000     6577.5714    12665   13.74%
*   547+   42                         7612.0000     6577.5714            13.59%
    548    42     7535.1091    45     7612.0000     6577.5714    12679   13.59%
    578    62     6639.5446    15     7612.0000     6578.3333    12999   13.58%
    613    97     6664.2696    41     7612.0000     6578.3333    13157   13.58%
*   647+  103                         7587.0000     6578.5842            13.29%
*   738    95      integral     0     6884.0000     6579.5842    14099    4.42%
Elapsed time = 3.10 sec. (4162.69 ticks, tree = 0.16 MB, solutions = 7)
*   768   117      integral     0     6869.0000     6580.0000    14582    4.21%
*   868+  148                         6714.0000     6581.0000             1.98%
   1017   236     6597.7426    23     6714.0000     6583.9851    17210    1.94%
*  1210   334      integral     0     6705.0000     6590.8627    19950    1.70%
   1505   495     6613.0050    21     6705.0000     6598.1634    24410    1.59%
   1820   640        cutoff           6705.0000     6608.4158    28394    1.44%
   2156   775     6643.1485    17     6705.0000     6615.8183    32910    1.33%
   2526   940     6628.5149    36     6705.0000     6621.1163    38030    1.25%
   2866  1070     6669.1551    26     6705.0000     6625.9901    43258    1.18%
   3211  1167        cutoff           6705.0000     6631.4950    48342    1.10%
   3540  1233        cutoff           6705.0000     6635.0000    53760    1.04%
Elapsed time = 10.44 sec. (12748.02 ticks, tree = 2.67 MB, solutions = 10)
   3893  1338     6645.5281    25     6705.0000     6638.0271    59053    1.00%
   4234  1349     6665.5429    42     6705.0000     6642.0662    64268    0.94%
   4594  1374        cutoff           6705.0000     6646.0000    69388    0.88%
   4964  1381     6681.1294    23     6705.0000     6650.8152    74429    0.81%
   5312  1426        cutoff           6705.0000     6654.0693    78914    0.76%
   5623  1366     6694.4455    32     6705.0000     6658.6881    83421    0.69%
   5950  1303     6685.8482     8     6705.0000     6662.0693    87889    0.64%
   6281  1240        cutoff           6705.0000     6666.0000    92173    0.58%
   6629  1113     6701.3960     2     6705.0000     6670.0000    96378    0.52%
   6976  1068     6680.3267    11     6705.0000     6673.4678   100601    0.47%
Elapsed time = 18.83 sec. (22307.09 ticks, tree = 2.13 MB, solutions = 10)
   7319  1028        cutoff           6705.0000     6677.3317   104531    0.41%
   7660   950     6683.9802     4     6705.0000     6680.9901   108355    0.36%
   8032   860     6697.3762     9     6705.0000     6683.9505   112011    0.31%
   8415   725     6689.8449    37     6705.0000     6688.0792   115923    0.25%
   8859   474     6695.3845    41     6705.0000     6692.0000   120669    0.19%
   9305   261     6698.0000     9     6705.0000     6697.2376   124874    0.12%

GUB cover cuts applied:  59
Clique cuts applied:  160
Cover cuts applied:  91
Implied bound cuts applied:  36
Flow cuts applied:  16
Mixed integer rounding cuts applied:  49
Zero-half cuts applied:  26
Lift and project cuts applied:  3
Gomory fractional cuts applied:  65

Root node processing (before b&c):
  Real time             =    0.35 sec. (388.79 ticks)
Sequential b&c:
  Real time             =   23.92 sec. (28387.73 ticks)
                          ------------
Total (root+branch&cut) =   24.27 sec. (28776.52 ticks)
SOLUTION:

x(0,141)[0..1]  = 1
x(3,104)[0..1]  = 1
x(5,138)[0..1]  = 1
x(7,23)[0..1]  = 1
x(7,156)[0..1]  = 1
x(11,88)[0..1]  = 1
x(11,93)[0..1]  = 1
x(17,36)[0..1]  = 1
x(19,152)[0..1]  = 1
x(23,102)[0..1]  = 1
x(31,60)[0..1]  = 1
x(32,134)[0..1]  = 1
x(36,96)[0..1]  = 1
x(37,62)[0..1]  = 1
x(44,114)[0..1]  = 1
x(46,112)[0..1]  = 1
x(53,55)[0..1]  = 1
x(55,106)[0..1]  = 1
x(63,123)[0..1]  = 1
x(63,125)[0..1]  = 1
x(74,98)[0..1]  = 1
x(77,140)[0..1]  = 1
x(80,136)[0..1]  = 1
x(84,146)[0..1]  = 1
x(91,175)[0..1]  = 1
x(98,149)[0..1]  = 1
x(98,183)[0..1]  = 1
x(100,121)[0..1]  = 1
x(107,132)[0..1]  = 1
x(110,168)[0..1]  = 1
x(110,170)[0..1]  = 1
x(115,169)[0..1]  = 1
x(134,155)[0..1]  = 1
x(134,172)[0..1]  = 1
x(135,148)[0..1]  = 1
x(141,145)[0..1]  = 1
x(148,199)[0..1]  = 1
x(151,182)[0..1]  = 1
x(152,159)[0..1]  = 1
x(152,181)[0..1]  = 1
x(153,179)[0..1]  = 1
x(171,177)[0..1]  = 1
x(184,189)[0..1]  = 1
x(187,191)[0..1]  = 1
x(189,192)[0..1]  = 1
x(158,3)[0..1]  = 1
x(159,5)[0..1]  = 1
x(181,7)[0..1]  = 1
x(17,9)[0..1]  = 1
x(46,11)[0..1]  = 1
x(55,15)[0..1]  = 1
x(140,17)[0..1]  = 1
x(53,20)[0..1]  = 1
x(138,21)[0..1]  = 1
x(136,24)[0..1]  = 1
x(84,25)[0..1]  = 1
x(115,27)[0..1]  = 1
x(36,31)[0..1]  = 1
x(52,32)[0..1]  = 1
x(84,37)[0..1]  = 1
x(100,42)[0..1]  = 1
x(156,44)[0..1]  = 1
x(121,46)[0..1]  = 1
x(175,48)[0..1]  = 1
x(135,50)[0..1]  = 1
x(184,53)[0..1]  = 1
x(182,63)[0..1]  = 1
x(84,74)[0..1]  = 1
x(181,77)[0..1]  = 1
x(106,78)[0..1]  = 1
x(107,80)[0..1]  = 1
x(88,82)[0..1]  = 1
x(87,84)[0..1]  = 1
x(118,87)[0..1]  = 1
x(148,91)[0..1]  = 1
x(126,100)[0..1]  = 1
x(191,107)[0..1]  = 1
x(151,109)[0..1]  = 1
x(189,110)[0..1]  = 1
x(146,111)[0..1]  = 1
x(159,115)[0..1]  = 1
x(152,117)[0..1]  = 1
x(141,118)[0..1]  = 1
x(168,126)[0..1]  = 1
x(192,128)[0..1]  = 1
x(145,135)[0..1]  = 1
x(175,143)[0..1]  = 1
x(192,151)[0..1]  = 1
x(169,153)[0..1]  = 1
x(194,157)[0..1]  = 1
x(183,158)[0..1]  = 1
x(193,171)[0..1]  = 1
x(187,184)[0..1]  = 1
x(194,187)[0..1]  = 1
x(195,188)[0..1]  = 1
x(199,193)[0..1]  = 1
x(199,194)[0..1]  = 1
x(199,195)[0..1]  = 1
z(3)[0..1]  = 1
z(5)[0..1]  = 1
z(7)[0..1]  = 1
z(9)[0..1]  = 1
z(11)[0..1]  = 1
z(15)[0..1]  = 1
z(17)[0..1]  = 1
z(19)[0..1]  = 1
z(20)[0..1]  = 1
z(21)[0..1]  = 1
z(23)[0..1]  = 1
z(24)[0..1]  = 1
z(25)[0..1]  = 1
z(27)[0..1]  = 1
z(31)[0..1]  = 1
z(32)[0..1]  = 1
z(36)[0..1]  = 1
z(37)[0..1]  = 1
z(42)[0..1]  = 1
z(44)[0..1]  = 1
z(46)[0..1]  = 1
z(48)[0..1]  = 1
z(50)[0..1]  = 1
z(52)[0..1]  = 1
z(53)[0..1]  = 1
z(55)[0..1]  = 1
z(60)[0..1]  = 1
z(62)[0..1]  = 1
z(63)[0..1]  = 1
z(74)[0..1]  = 1
z(77)[0..1]  = 1
z(78)[0..1]  = 1
z(80)[0..1]  = 1
z(82)[0..1]  = 1
z(84)[0..1]  = 1
z(87)[0..1]  = 1
z(88)[0..1]  = 1
z(91)[0..1]  = 1
z(93)[0..1]  = 1
z(96)[0..1]  = 1
z(98)[0..1]  = 1
z(100)[0..1]  = 1
z(102)[0..1]  = 1
z(104)[0..1]  = 1
z(106)[0..1]  = 1
z(107)[0..1]  = 1
z(109)[0..1]  = 1
z(110)[0..1]  = 1
z(111)[0..1]  = 1
z(112)[0..1]  = 1
z(114)[0..1]  = 1
z(115)[0..1]  = 1
z(117)[0..1]  = 1
z(118)[0..1]  = 1
z(121)[0..1]  = 1
z(123)[0..1]  = 1
z(125)[0..1]  = 1
z(126)[0..1]  = 1
z(128)[0..1]  = 1
z(132)[0..1]  = 1
z(134)[0..1]  = 1
z(135)[0..1]  = 1
z(136)[0..1]  = 1
z(138)[0..1]  = 1
z(140)[0..1]  = 1
z(141)[0..1]  = 1
z(143)[0..1]  = 1
z(145)[0..1]  = 1
z(146)[0..1]  = 1
z(148)[0..1]  = 1
z(149)[0..1]  = 1
z(151)[0..1]  = 1
z(152)[0..1]  = 1
z(153)[0..1]  = 1
z(155)[0..1]  = 1
z(156)[0..1]  = 1
z(157)[0..1]  = 1
z(158)[0..1]  = 1
z(159)[0..1]  = 1
z(168)[0..1]  = 1
z(169)[0..1]  = 1
z(170)[0..1]  = 1
z(171)[0..1]  = 1
z(172)[0..1]  = 1
z(175)[0..1]  = 1
z(177)[0..1]  = 1
z(179)[0..1]  = 1
z(181)[0..1]  = 1
z(182)[0..1]  = 1
z(183)[0..1]  = 1
z(184)[0..1]  = 1
z(187)[0..1]  = 1
z(188)[0..1]  = 1
z(189)[0..1]  = 1
z(191)[0..1]  = 1
z(192)[0..1]  = 1
z(193)[0..1]  = 1
z(194)[0..1]  = 1
z(195)[0..1]  = 1
z(199)[0..1]  = 1


CPLEX finished.

CPLEX status: Optimal
Branch-and-Bound nodes: 9675
Objective value: 6705
CPU time: 24.25

